Problem:    
Rows:       39
Columns:    17 (10 integer, 10 binary)
Non-zeros:  110
Status:     INTEGER OPTIMAL
Objective:  value = 90.6158 (MINimum)

   No.   Row name        Activity     Lower bound   Upper bound
------ ------------    ------------- ------------- -------------
     1 r.5                   590.616             0               
     2 r.6                  -409.384      -434.747               
     3 r.7                   90.6158             0               
     4 r.8                    6.4619      -466.894               
     5 r.9                   90.6158             0               
     6 r.10                  25.3631      -277.523               
     7 r.11                  590.616             0               
     8 r.12                 -409.384      -415.846               
     9 r.13                  90.6158             0               
    10 r.14                   3.4619      -496.894               
    11 r.15                  590.616             0               
    12 r.16                 -496.538      -496.538               
    13 r.17                        1             1             = 
    14 r.18                        1             1             = 
    15 r.19                        1             1             = 
    16 r.20                  434.747       222.477               
    17 r.21                 -434.747      -434.747               
    18 r.22                  84.1539       84.1539               
    19 r.23                 -84.1539      -466.894               
    20 r.24                 -412.846      -431.747               
    21 r.25                        3      -463.894               
    22 r.26                 -412.846      -431.747               
    23 r.27                        3      -463.894               
    24 r.28                  65.2527       65.2527               
    25 r.29                 -65.2527      -277.523               
    26 r.30                  415.846       33.1063               
    27 r.31                 -415.846      -415.846               
    28 r.32                  21.9012      -274.523               
    29 r.33                 -412.846      -412.846               
    30 r.34                  21.9012      -274.523               
    31 r.35                 -412.846      -412.846               
    32 r.36                 -412.846      -431.747               
    33 r.37                        3      -463.894               
    34 r.38                 -412.846      -431.747               
    35 r.39                        3      -463.894               
    36 r.40                  21.9012      -274.523               
    37 r.41                 -412.846      -412.846               
    38 r.42                  21.9012      -274.523               
    39 r.43                 -412.846      -412.846               

   No. Column name       Activity     Lower bound   Upper bound
------ ------------    ------------- ------------- -------------
     1 tt                    90.6158             0               
     2 s_1_1        *              1             0             1 
     3 t_1_1                       0             0               
     4 s_2_1        *              0             0             1 
     5 t_2_1                 84.1539             0               
     6 s_1_2        *              0             0             1 
     7 t_1_2                 65.2527             0               
     8 s_2_2        *              1             0             1 
     9 t_2_2                       0             0               
    10 s_1_3        *              0             0             1 
    11 t_1_3                 87.1539             0               
    12 s_2_3        *              1             0             1 
    13 t_2_3                 87.1539             0               
    14 u_1_1_2      *              1             0             1 
    15 u_2_1_2      *              0             0             1 
    16 u_1_2_1      *              0             0             1 
    17 u_2_2_1      *              1             0             1 

Integer feasibility conditions:

KKT.PE: max.abs.err = 0.00e+00 on row 0
        max.rel.err = 0.00e+00 on row 0
        High quality

KKT.PB: max.abs.err = 0.00e+00 on row 0
        max.rel.err = 0.00e+00 on row 0
        High quality

End of output
